#######################################
### Exact MIP solver for the HHCRSP ###
#######################################
-- Instance file: new-instances/HHCRSP_200_40_3_1.6_C_RC.txt
-- Max threads: 4
-- Time limit: 999999 seconds
-- Use initial solution: No
Trivial flow violations prevented generating 341469 variables.
Version identifier: 20.1.0.0 | 2020-11-10 | 9bedb6d68
CPXPARAM_Threads                                 4
CPXPARAM_TimeLimit                               999999
Parallel mode: deterministic, using up to 4 threads for concurrent optimization:
 * Starting dual Simplex on 1 thread...
 * Starting Barrier on 3 threads...
Tried aggregator 1 time.
LP Presolve eliminated 20094 rows and 4517 columns.
Reduced LP has 362638 rows, 346088 columns, and 5942387 nonzeros.
Presolve time = 11.73 sec. (1387.93 ticks)
Symmetry aggregator did 531145 additional substitutions.

Iteration log . . .
Iteration:     1   Dual objective     =             0.000000
Iteration:   938   Dual objective     =           250.666667

Dual crossover.
  Dual:  Fixing 738 variables.
      737 DMoves:  Infeasibility  5.02042876e-13  Objective  2.50666667e+02
        0 DMoves:  Infeasibility  2.28928012e-13  Objective  2.50666667e+02
  Dual:  Pushed 42, exchanged 696.
  Primal:  Fixing 603 variables.
      602 PMoves:  Infeasibility  5.55111512e-17  Objective  2.50666667e+02
        0 PMoves:  Infeasibility  9.99200722e-16  Objective  2.50666667e+02
  Primal:  Pushed 504, exchanged 99.

Dual simplex solved model.


Solution status from MIP model:
-- Processing time: 19.565 sec.
-- Memory used: 414.328 MB
-- Best bound: inf
-- Obj value: 250.667
-- Gap: inf%
-- Total distance: 752
-- Total tardiness: 0
-- Largest tardiness: 0
